clingo version 5.6.2
Reading from ...etition/0056-graph_colouring-150-0.asp ...
Solving...
UNSATISFIABLE

Models       : 0
Calls        : 1
Time         : 259.631s (Solving: 259.39s 1st Model: 0.00s Unsat: 259.39s)
CPU Time     : 259.552s

Choices      : 5977712 
Conflicts    : 5524620  (Analyzed: 5524619)
Restarts     : 11821    (Average: 467.36 Last: 2)
Problems     : 1        (Average Length: 0.00 Splits: 0)
Lemmas       : 5524619  (Deleted: 5450442)
  Binary     : 344      (Ratio:   0.01%)
  Ternary    : 2606     (Ratio:   0.05%)
  Conflict   : 5524619  (Average Length:   28.9 Ratio: 100.00%) 
  Loop       : 0        (Average Length:    0.0 Ratio:   0.00%) 
  Other      : 0        (Average Length:    0.0 Ratio:   0.00%) 
Backjumps    : 5524619  (Average:  1.07 Max:  11 Sum: 5903211)
  Executed   : 5524619  (Average:  1.07 Max:  11 Sum: 5903211 Ratio: 100.00%)
  Bounded    : 0        (Average:  0.00 Max:   0 Sum:      0 Ratio:   0.00%)

Rules        : 21496   
Atoms        : 3914    
Bodies       : 1480    
Equivalences : 2924     (Atom=Atom: 17 Body=Body: 726 Other: 2181)
Tight        : Yes
Variables    : 884      (Eliminated:    0 Frozen:    0)
Constraints  : 8638     (Binary:  89.9% Ternary:   0.0% Other:  10.0%)

